c This is an instance of the exact track of PACE 2020 Challenge, see https://pacechallenge.org/2020/ 
c TYPE: infrastracture 
c ORIGIN: Open street maps 
c DESCRIPTION: Szabda (Poland): a road network downloaded from open street maps using osmnx Python package 
p tdp 92 104
1 60
1 19
1 2
2 17
2 63
3 65
3 9
3 67
4 8
4 80
4 34
4 53
5 9
5 92
5 15
5 66
6 30
6 7
6 65
7 31
7 80
8 12
8 82
10 85
10 26
11 72
11 38
11 37
13 14
13 43
14 60
15 16
15 65
15 30
18 20
18 22
18 64
19 88
19 67
21 62
22 62
23 24
24 25
24 36
25 27
25 41
26 37
27 28
28 29
30 85
31 88
31 36
32 35
33 34
34 35
35 36
38 74
38 73
39 46
39 41
40 42
40 41
40 44
42 43
43 44
44 45
45 46
45 49
46 48
47 48
48 49
50 52
50 51
52 53
52 55
53 54
56 63
57 58
57 64
58 59
58 63
58 62
59 60
59 61
66 86
67 68
69 70
70 72
71 72
74 75
74 78
75 76
75 77
78 82
78 79
80 81
81 84
81 85
82 84
83 84
87 88
89 90
90 91
90 92
